NAME : in_house_9_22
TYPE : TSP
DIMENSION : 9
EDGE_WEIGHT_TYPE : EXPLICIT
EDGE_WEIGHT_FORMAT : UPPER_ROW
COMMENT : INVERSION_SHIFT=8
EDGE_WEIGHT_SECTION
6
15
51
21
59
81
12
63
79
40
33
62
51
42
61
13
16
60
64
10
64
67
56
12
71
70
10
49
35
75
53
11
79
52
54
8
